NAME : Euclidean Random Tour : n = 100, sample = 2 
COMMENT : Coordinates are generated uniformly sampled from [0, 100000] x [0, 100000] 
DIMENSION : 100 
EDGE_WEIGHT_TYPE : EUC_2D 
TOUR_SECTION 
1
44
82
10
37
48
74
47
3
77
68
43
64
29
4
62
30
46
63
39
88
11
71
83
33
18
86
89
53
93
55
59
31
24
100
72
34
42
7
98
60
90
80
95
58
79
9
49
99
96
25
70
84
52
8
26
61
69
67
45
66
94
75
54
22
85
36
2
56
78
76
92
19
73
40
81
12
21
65
41
14
91
35
5
51
17
20
15
87
6
27
38
57
28
32
16
23
13
97
50
-1
